Ordonnancement/plne/source/petit_instance/4job/4job_5.dat
data;
param nombreJob := 4;
param nombreRessource := 3;
param duree := 1 10 2 5 3 5 4 3;
param capaciteRessource := 1 5 2 10 3 18;
param besoinRessource : 1 2 3 :=
                    1   4 7 10
                    2   4 1 1
                    3   4 3 5
                    4   1 1 1;
end;

