Ordonnancement/plne/source/glpk_resultat/4job/4job_5.sol
Problem:    glpsolRcpsp
Rows:       250
Columns:    93 (92 integer, 92 binary)
Non-zeros:  1645
Status:     INTEGER OPTIMAL
Objective:  obj = 20 (MINimum)

   No.   Row name        Activity     Lower bound   Upper bound
------ ------------    ------------- ------------- -------------
     1 periode[1]                 10            10             = 
     2 periode[2]                  5             5             = 
     3 periode[3]                  5             5             = 
     4 periode[4]                  3             3             = 
     5 complet[1,1]                8                          10 
     6 complet[1,2]                7                          10 
     7 complet[1,3]                6                          10 
     8 complet[1,4]                5                          10 
     9 complet[1,5]                4                          10 
    10 complet[1,6]                3                          10 
    11 complet[1,7]                2                          10 
    12 complet[1,8]                1                          10 
    13 complet[1,9]                0                          10 
    14 complet[1,10]
                                  10                          10 
    15 complet[1,11]
                                   0                          10 
    16 complet[1,12]
                                   0                          10 
    17 complet[1,13]
                                   0                          10 
    18 complet[1,14]
                                   0                          10 
    19 complet[1,15]
                                   0                          10 
    20 complet[1,16]
                                   0                          10 
    21 complet[1,17]
                                   0                          10 
    22 complet[1,18]
                                   0                          10 
    23 complet[1,19]
                                   0                          10 
    24 complet[1,20]
                                   0                          10 
    25 complet[1,21]
                                   0                          10 
    26 complet[2,1]                5                           5 
    27 complet[2,2]                5                           5 
    28 complet[2,3]                5                           5 
    29 complet[2,4]                5                           5 
    30 complet[2,5]                5                           5 
    31 complet[2,6]                5                           5 
    32 complet[2,7]                5                           5 
    33 complet[2,8]                5                           5 
    34 complet[2,9]                5                           5 
    35 complet[2,10]
                                  -1                           5 
    36 complet[2,11]
                                   3                           5 
    37 complet[2,12]
                                   2                           5 
    38 complet[2,13]
                                   1                           5 
    39 complet[2,14]
                                   0                           5 
    40 complet[2,15]
                                   5                           5 
    41 complet[2,16]
                                   0                           5 
    42 complet[2,17]
                                   0                           5 
    43 complet[2,18]
                                   0                           5 
    44 complet[2,19]
                                   0                           5 
    45 complet[2,20]
                                   0                           5 
    46 complet[2,21]
                                   0                           5 
    47 complet[3,1]                5                           5 
    48 complet[3,2]                5                           5 
    49 complet[3,3]                5                           5 
    50 complet[3,4]                5                           5 
    51 complet[3,5]                5                           5 
    52 complet[3,6]                5                           5 
    53 complet[3,7]                5                           5 
    54 complet[3,8]                5                           5 
    55 complet[3,9]                5                           5 
    56 complet[3,10]
                                   5                           5 
    57 complet[3,11]
                                   5                           5 
    58 complet[3,12]
                                   5                           5 
    59 complet[3,13]
                                   5                           5 
    60 complet[3,14]
                                   5                           5 
    61 complet[3,15]
                                  -1                           5 
    62 complet[3,16]
                                   3                           5 
    63 complet[3,17]
                                   2                           5 
    64 complet[3,18]
                                   1                           5 
    65 complet[3,19]
                                   0                           5 
    66 complet[3,20]
                                   5                           5 
    67 complet[3,21]
                                   0                           5 
    68 complet[4,1]                3                           3 
    69 complet[4,2]                3                           3 
    70 complet[4,3]                3                           3 
    71 complet[4,4]                3                           3 
    72 complet[4,5]                3                           3 
    73 complet[4,6]                3                           3 
    74 complet[4,7]                3                           3 
    75 complet[4,8]                3                           3 
    76 complet[4,9]                3                           3 
    77 complet[4,10]
                                  -1                           3 
    78 complet[4,11]
                                   1                           3 
    79 complet[4,12]
                                   0                           3 
    80 complet[4,13]
                                   3                           3 
    81 complet[4,14]
                                   0                           3 
    82 complet[4,15]
                                   0                           3 
    83 complet[4,16]
                                   0                           3 
    84 complet[4,17]
                                   0                           3 
    85 complet[4,18]
                                   0                           3 
    86 complet[4,19]
                                   0                           3 
    87 complet[4,20]
                                   0                           3 
    88 complet[4,21]
                                   0                           3 
    89 cmax[1,1]                  19            -0               
    90 cmax[1,2]                  18            -0               
    91 cmax[1,3]                  17            -0               
    92 cmax[1,4]                  16            -0               
    93 cmax[1,5]                  15            -0               
    94 cmax[1,6]                  14            -0               
    95 cmax[1,7]                  13            -0               
    96 cmax[1,8]                  12            -0               
    97 cmax[1,9]                  11            -0               
    98 cmax[1,10]                 10            -0               
    99 cmax[1,11]                 20            -0               
   100 cmax[1,12]                 20            -0               
   101 cmax[1,13]                 20            -0               
   102 cmax[1,14]                 20            -0               
   103 cmax[1,15]                 20            -0               
   104 cmax[1,16]                 20            -0               
   105 cmax[1,17]                 20            -0               
   106 cmax[1,18]                 20            -0               
   107 cmax[1,19]                 20            -0               
   108 cmax[1,20]                 20            -0               
   109 cmax[1,21]                 20            -0               
   110 cmax[1,22]                 20            -0               
   111 cmax[1,23]                 20            -0               
   112 cmax[2,1]                  20            -0               
   113 cmax[2,2]                  20            -0               
   114 cmax[2,3]                  20            -0               
   115 cmax[2,4]                  20            -0               
   116 cmax[2,5]                  20            -0               
   117 cmax[2,6]                  20            -0               
   118 cmax[2,7]                  20            -0               
   119 cmax[2,8]                  20            -0               
   120 cmax[2,9]                  20            -0               
   121 cmax[2,10]                 20            -0               
   122 cmax[2,11]                  9            -0               
   123 cmax[2,12]                  8            -0               
   124 cmax[2,13]                  7            -0               
   125 cmax[2,14]                  6            -0               
   126 cmax[2,15]                  5            -0               
   127 cmax[2,16]                 20            -0               
   128 cmax[2,17]                 20            -0               
   129 cmax[2,18]                 20            -0               
   130 cmax[2,19]                 20            -0               
   131 cmax[2,20]                 20            -0               
   132 cmax[2,21]                 20            -0               
   133 cmax[2,22]                 20            -0               
   134 cmax[2,23]                 20            -0               
   135 cmax[3,1]                  20            -0               
   136 cmax[3,2]                  20            -0               
   137 cmax[3,3]                  20            -0               
   138 cmax[3,4]                  20            -0               
   139 cmax[3,5]                  20            -0               
   140 cmax[3,6]                  20            -0               
   141 cmax[3,7]                  20            -0               
   142 cmax[3,8]                  20            -0               
   143 cmax[3,9]                  20            -0               
   144 cmax[3,10]                 20            -0               
   145 cmax[3,11]                 20            -0               
   146 cmax[3,12]                 20            -0               
   147 cmax[3,13]                 20            -0               
   148 cmax[3,14]                 20            -0               
   149 cmax[3,15]                 20            -0               
   150 cmax[3,16]                  4            -0               
   151 cmax[3,17]                  3            -0               
   152 cmax[3,18]                  2            -0               
   153 cmax[3,19]                  1            -0               
   154 cmax[3,20]                  0            -0               
   155 cmax[3,21]                 20            -0               
   156 cmax[3,22]                 20            -0               
   157 cmax[3,23]                 20            -0               
   158 cmax[4,1]                  20            -0               
   159 cmax[4,2]                  20            -0               
   160 cmax[4,3]                  20            -0               
   161 cmax[4,4]                  20            -0               
   162 cmax[4,5]                  20            -0               
   163 cmax[4,6]                  20            -0               
   164 cmax[4,7]                  20            -0               
   165 cmax[4,8]                  20            -0               
   166 cmax[4,9]                  20            -0               
   167 cmax[4,10]                 20            -0               
   168 cmax[4,11]                  9            -0               
   169 cmax[4,12]                  8            -0               
   170 cmax[4,13]                  7            -0               
   171 cmax[4,14]                 20            -0               
   172 cmax[4,15]                 20            -0               
   173 cmax[4,16]                 20            -0               
   174 cmax[4,17]                 20            -0               
   175 cmax[4,18]                 20            -0               
   176 cmax[4,19]                 20            -0               
   177 cmax[4,20]                 20            -0               
   178 cmax[4,21]                 20            -0               
   179 cmax[4,22]                 20            -0               
   180 cmax[4,23]                 20            -0               
   181 ressource[1,1]
                                   4                           5 
   182 ressource[1,2]
                                   4                           5 
   183 ressource[1,3]
                                   4                           5 
   184 ressource[1,4]
                                   4                           5 
   185 ressource[1,5]
                                   4                           5 
   186 ressource[1,6]
                                   4                           5 
   187 ressource[1,7]
                                   4                           5 
   188 ressource[1,8]
                                   4                           5 
   189 ressource[1,9]
                                   4                           5 
   190 ressource[1,10]
                                   4                           5 
   191 ressource[1,11]
                                   5                           5 
   192 ressource[1,12]
                                   5                           5 
   193 ressource[1,13]
                                   5                           5 
   194 ressource[1,14]
                                   4                           5 
   195 ressource[1,15]
                                   4                           5 
   196 ressource[1,16]
                                   4                           5 
   197 ressource[1,17]
                                   4                           5 
   198 ressource[1,18]
                                   4                           5 
   199 ressource[1,19]
                                   4                           5 
   200 ressource[1,20]
                                   4                           5 
   201 ressource[1,21]
                                   0                           5 
   202 ressource[1,22]
                                   0                           5 
   203 ressource[1,23]
                                   0                           5 
   204 ressource[2,1]
                                   7                          10 
   205 ressource[2,2]
                                   7                          10 
   206 ressource[2,3]
                                   7                          10 
   207 ressource[2,4]
                                   7                          10 
   208 ressource[2,5]
                                   7                          10 
   209 ressource[2,6]
                                   7                          10 
   210 ressource[2,7]
                                   7                          10 
   211 ressource[2,8]
                                   7                          10 
   212 ressource[2,9]
                                   7                          10 
   213 ressource[2,10]
                                   7                          10 
   214 ressource[2,11]
                                   2                          10 
   215 ressource[2,12]
                                   2                          10 
   216 ressource[2,13]
                                   2                          10 
   217 ressource[2,14]
                                   1                          10 
   218 ressource[2,15]
                                   1                          10 
   219 ressource[2,16]
                                   3                          10 
   220 ressource[2,17]
                                   3                          10 
   221 ressource[2,18]
                                   3                          10 
   222 ressource[2,19]
                                   3                          10 
   223 ressource[2,20]
                                   3                          10 
   224 ressource[2,21]
                                   0                          10 
   225 ressource[2,22]
                                   0                          10 
   226 ressource[2,23]
                                   0                          10 
   227 ressource[3,1]
                                  10                          18 
   228 ressource[3,2]
                                  10                          18 
   229 ressource[3,3]
                                  10                          18 
   230 ressource[3,4]
                                  10                          18 
   231 ressource[3,5]
                                  10                          18 
   232 ressource[3,6]
                                  10                          18 
   233 ressource[3,7]
                                  10                          18 
   234 ressource[3,8]
                                  10                          18 
   235 ressource[3,9]
                                  10                          18 
   236 ressource[3,10]
                                  10                          18 
   237 ressource[3,11]
                                   2                          18 
   238 ressource[3,12]
                                   2                          18 
   239 ressource[3,13]
                                   2                          18 
   240 ressource[3,14]
                                   1                          18 
   241 ressource[3,15]
                                   1                          18 
   242 ressource[3,16]
                                   5                          18 
   243 ressource[3,17]
                                   5                          18 
   244 ressource[3,18]
                                   5                          18 
   245 ressource[3,19]
                                   5                          18 
   246 ressource[3,20]
                                   5                          18 
   247 ressource[3,21]
                                   0                          18 
   248 ressource[3,22]
                                   0                          18 
   249 ressource[3,23]
                                   0                          18 
   250 obj                        20                             

   No. Column name       Activity     Lower bound   Upper bound
------ ------------    ------------- ------------- -------------
     1 x[1,1]       *              1             0             1 
     2 x[1,2]       *              1             0             1 
     3 x[1,3]       *              1             0             1 
     4 x[1,4]       *              1             0             1 
     5 x[1,5]       *              1             0             1 
     6 x[1,6]       *              1             0             1 
     7 x[1,7]       *              1             0             1 
     8 x[1,8]       *              1             0             1 
     9 x[1,9]       *              1             0             1 
    10 x[1,10]      *              1             0             1 
    11 x[1,11]      *              0             0             1 
    12 x[1,12]      *              0             0             1 
    13 x[1,13]      *              0             0             1 
    14 x[1,14]      *              0             0             1 
    15 x[1,15]      *              0             0             1 
    16 x[1,16]      *              0             0             1 
    17 x[1,17]      *              0             0             1 
    18 x[1,18]      *              0             0             1 
    19 x[1,19]      *              0             0             1 
    20 x[1,20]      *              0             0             1 
    21 x[1,21]      *              0             0             1 
    22 x[1,22]      *              0             0             1 
    23 x[1,23]      *              0             0             1 
    24 x[2,1]       *              0             0             1 
    25 x[2,2]       *              0             0             1 
    26 x[2,3]       *              0             0             1 
    27 x[2,4]       *              0             0             1 
    28 x[2,5]       *              0             0             1 
    29 x[2,6]       *              0             0             1 
    30 x[2,7]       *              0             0             1 
    31 x[2,8]       *              0             0             1 
    32 x[2,9]       *              0             0             1 
    33 x[2,10]      *              0             0             1 
    34 x[2,11]      *              1             0             1 
    35 x[2,12]      *              1             0             1 
    36 x[2,13]      *              1             0             1 
    37 x[2,14]      *              1             0             1 
    38 x[2,15]      *              1             0             1 
    39 x[2,16]      *              0             0             1 
    40 x[2,17]      *              0             0             1 
    41 x[2,18]      *              0             0             1 
    42 x[2,19]      *              0             0             1 
    43 x[2,20]      *              0             0             1 
    44 x[2,21]      *              0             0             1 
    45 x[2,22]      *              0             0             1 
    46 x[2,23]      *              0             0             1 
    47 x[3,1]       *              0             0             1 
    48 x[3,2]       *              0             0             1 
    49 x[3,3]       *              0             0             1 
    50 x[3,4]       *              0             0             1 
    51 x[3,5]       *              0             0             1 
    52 x[3,6]       *              0             0             1 
    53 x[3,7]       *              0             0             1 
    54 x[3,8]       *              0             0             1 
    55 x[3,9]       *              0             0             1 
    56 x[3,10]      *              0             0             1 
    57 x[3,11]      *              0             0             1 
    58 x[3,12]      *              0             0             1 
    59 x[3,13]      *              0             0             1 
    60 x[3,14]      *              0             0             1 
    61 x[3,15]      *              0             0             1 
    62 x[3,16]      *              1             0             1 
    63 x[3,17]      *              1             0             1 
    64 x[3,18]      *              1             0             1 
    65 x[3,19]      *              1             0             1 
    66 x[3,20]      *              1             0             1 
    67 x[3,21]      *              0             0             1 
    68 x[3,22]      *              0             0             1 
    69 x[3,23]      *              0             0             1 
    70 x[4,1]       *              0             0             1 
    71 x[4,2]       *              0             0             1 
    72 x[4,3]       *              0             0             1 
    73 x[4,4]       *              0             0             1 
    74 x[4,5]       *              0             0             1 
    75 x[4,6]       *              0             0             1 
    76 x[4,7]       *              0             0             1 
    77 x[4,8]       *              0             0             1 
    78 x[4,9]       *              0             0             1 
    79 x[4,10]      *              0             0             1 
    80 x[4,11]      *              1             0             1 
    81 x[4,12]      *              1             0             1 
    82 x[4,13]      *              1             0             1 
    83 x[4,14]      *              0             0             1 
    84 x[4,15]      *              0             0             1 
    85 x[4,16]      *              0             0             1 
    86 x[4,17]      *              0             0             1 
    87 x[4,18]      *              0             0             1 
    88 x[4,19]      *              0             0             1 
    89 x[4,20]      *              0             0             1 
    90 x[4,21]      *              0             0             1 
    91 x[4,22]      *              0             0             1 
    92 x[4,23]      *              0             0             1 
    93 z                          20                             

Integer feasibility conditions:

KKT.PE: max.abs.err = 0.00e+00 on row 0
        max.rel.err = 0.00e+00 on row 0
        High quality

KKT.PB: max.abs.err = 0.00e+00 on row 0
        max.rel.err = 0.00e+00 on row 0
        High quality

End of output
